Solver command line: ['C:\\gurobi1002\\win64\\bin\\gurobi.bat']

Set parameter Username
Academic license - for non-commercial use only - expires 2024-08-20
Read LP format model from file C:\Users\mhafeman\AppData\Local\Temp\tmpyffo20rc.pyomo.lp
Reading time = 1.73 seconds
obj: 385441 rows, 332879 columns, 893506 nonzeros
Gurobi Optimizer version 10.0.2 build v10.0.2rc0 (win64)

CPU model: AMD Ryzen 7 3800X 8-Core Processor, instruction set [SSE2|AVX|AVX2]
Thread count: 8 physical cores, 16 logical processors, using up to 16 threads

Optimize a model with 385441 rows, 332879 columns and 893506 nonzeros
Model fingerprint: 0xaaaa13a4
Model has 8759 quadratic constraints
Variable types: 254040 continuous, 78839 integer (61320 binary)
Coefficient statistics:
  Matrix range     [1e-04, 3e+02]
  QMatrix range    [1e+00, 1e+00]
  Objective range  [1e-02, 3e+02]
  Bounds range     [1e+00, 3e+00]
  RHS range        [1e-03, 3e+03]
Presolve removed 291082 rows and 229419 columns
Presolve time: 1.30s
Presolved: 94359 rows, 103460 columns, 242244 nonzeros
Variable types: 60490 continuous, 42970 integer (42970 binary)
Found heuristic solution: objective -1210806.006
Deterministic concurrent LP optimizer: primal and dual simplex
Showing first log only...

Concurrent spin time: 0.00s

Solved with dual simplex

Root relaxation: objective -2.523304e+07, 12294 iterations, 0.51 seconds (0.62 work units)

    Nodes    |    Current Node    |     Objective Bounds      |     Work
 Expl Unexpl |  Obj  Depth IntInf | Incumbent    BestBd   Gap | It/Node Time

     0     0 -2.523e+07    0  167 -1210806.0 -2.523e+07  1984%     -    3s
H    0     0                    -3780576.779 -2.523e+07   567%     -    3s
     0     0 -2.523e+07    0  500 -3780576.8 -2.523e+07   567%     -    3s
H    0     0                    -2.52323e+07 -2.523e+07  0.00%     -    4s

Cutting planes:
  Gomory: 120
  Cover: 4
  Implied bound: 4
  Clique: 3
  MIR: 1
  Flow cover: 2

Explored 1 nodes (30844 simplex iterations) in 4.18 seconds (4.77 work units)
Thread count was 16 (of 16 available processors)

Solution count 3: -2.52323e+07 -3.78058e+06 -1.21081e+06 

Optimal solution found (tolerance 1.00e-04)
Best objective -2.523225943842e+07, best bound -2.523303589309e+07, gap 0.0031%

